448,173
792,64
718,169
899,248
1023,295
1071,406
799,424
672,378
575,300
641,326
672,347
734,379
672,378
653,229
718,169
935,152
1062,25
935,152
1062,25
1051,286
766,379
729,441
471,406
411,406
510,351
387,257
448,173
681,166
975,257
766,379
729,441
765,939
871,780
1184,485
1131,406
1051,286
999,724
435,745
385,360
560,318
575,300
560,318
531,406
764,662
765,939
435,745
366,635
411,406
871,780
963,794
708,491
653,229
414,270
385,360
531,406
708,491
